30
1 0 4
2 0 11
4 0 1
4 1 7
5 0 12
5 1 7
5 2 5
5 3 11
5 4 3
6 0 3
6 1 5
6 2 5
6 3 2
6 4 12
6 5 1
7 1 11
7 3 11
7 5 2
8 0 2
8 4 6
8 5 3
8 6 5
8 7 8
9 1 11
9 3 8
9 6 12
10 1 1
10 3 10
10 5 5
10 6 12
10 7 11
10 9 7
11 0 7
11 1 5
11 2 9
11 6 4
11 7 8
11 8 4
11 10 11
12 1 12
12 2 11
12 5 10
12 6 11
12 7 4
12 8 10
12 9 1
13 0 11
13 4 1
13 5 6
13 6 6
13 10 5
13 12 10
14 2 5
14 3 3
14 8 10
14 13 4
15 0 4
15 1 7
15 2 4
15 3 10
15 5 7
15 6 5
15 9 4
15 10 12
15 11 5
15 12 5
15 13 3
15 14 7
16 4 3
16 7 6
16 8 5
16 10 2
16 11 5
16 12 11
16 13 1
16 14 4
17 1 5
17 2 11
17 6 5
17 7 5
17 8 12
17 10 8
17 12 9
17 13 1
17 15 12
17 16 7
18 0 7
18 1 2
18 5 9
18 6 5
18 9 8
18 13 2
18 14 3
18 15 6
19 3 3
19 4 8
19 6 7
19 7 3
19 8 12
19 11 11
19 13 5
19 14 4
19 15 11
19 16 2
19 17 12
20 2 11
20 4 2
20 5 5
20 6 8
20 7 12
20 9 12
20 10 8
20 11 1
20 13 12
20 17 4
20 18 5
21 0 4
21 1 7
21 2 1
21 3 1
21 4 8
21 5 1
21 6 9
21 8 12
21 9 10
21 12 6
21 16 10
21 20 12
22 3 9
22 4 4
22 5 6
22 6 12
22 8 12
22 9 1
22 10 12
22 11 3
22 15 9
22 16 3
22 19 2
23 1 6
23 2 4
23 3 5
23 4 10
23 5 3
23 6 2
23 7 1
23 8 4
23 10 9
23 12 3
23 15 3
23 16 12
23 17 3
23 18 3
23 21 8
24 2 3
24 3 12
24 6 6
24 7 1
24 10 7
24 12 7
24 14 9
24 15 6
24 16 8
24 19 1
24 20 4
24 23 2
25 1 5
25 2 3
25 3 11
25 8 5
25 12 6
25 15 6
25 22 3
26 0 9
26 5 7
26 8 11
26 9 3
26 11 6
26 12 7
26 14 7
26 15 8
26 16 3
26 18 2
26 22 4
26 23 9
26 24 5
27 1 7
27 2 9
27 4 3
27 6 1
27 7 8
27 8 3
27 10 5
27 12 5
27 13 9
27 16 10
27 17 7
27 18 12
27 20 8
27 22 7
27 23 3
27 25 12
27 26 11
28 0 9
28 2 8
28 3 7
28 5 12
28 6 8
28 7 10
28 8 6
28 9 3
28 10 2
28 11 8
28 12 9
28 13 12
28 14 11
28 15 6
28 16 12
28 17 11
28 18 9
28 19 9
28 20 10
28 21 11
28 23 6
28 27 3
29 0 1
29 1 2
29 2 4
29 3 12
29 4 8
29 9 11
29 10 6
29 12 6
29 14 11
29 17 5
29 18 10
29 19 7
29 20 11
29 21 6
29 23 10
29 24 1
29 26 9
